# SCIP version 3.0.0

# is base separator enabled?
sepa/base/enable = TRUE

# is objective constraint of separator enabled?
sepa/base/enableobj = TRUE

# round obj rhs/lhs of obj constraint if obj is int?
sepa/base/enableobjround = TRUE

sepa/base/iterations = 10

sepa/base/aggressive = TRUE

sepa/base/enableppcuts = TRUE

sepa/base/chgobj = FALSE

lp/solvefreq = 0

lp/iterlim = -1

lp/rootiterlim = -1

conflict/enable = FALSE

separating/poolfreq = -1
